(set-info :Origin "This instance was generated by: BanditFuzz-- an RL fuzzer for SMT solvers" )
(set-info :Author "Joe Scott, Fed Mora, Vijay Ganesh" )
(set-info :Contact "Joe Scott, joseph.scott@uwaterloo.ca")
; solvers/z3.sh
; 	time => 0.19230055809020996
; 	answer => err
; solvers/bitwuzla.sh
; 	time => 0.16729307174682617
; 	answer => err
; solvers/cvc4.sh
; 	time => 0.2145063877105713
; 	answer => err
(set-logic QF_BV)
(declare-const bool_0 Bool)
(declare-const bool_1 Bool)
(declare-const bool_2 Bool)
(declare-const bool_3 Bool)
(declare-const bool_4 Bool)
(declare-const bv_0 (_ BitVec 8))
(declare-const bv_1 (_ BitVec 8))
(declare-const bv_2 (_ BitVec 8))
(declare-const bv_3 (_ BitVec 8))
(declare-const bv_4 (_ BitVec 8))
(assert (and (bvugt (bvxnor bv_1 bv_0) (bvsdiv bv_4 #x0000002c )) (bvsle (bvsub bv_0 #x00000068 ) (bvsdiv bv_2 #x000000c4 ))))
(assert (bvsgt (bvxnor (bvnand bv_1 #x0000001a ) (bvsub #x00000021  #x00000006 )) (bvadd (bvurem #x0000006f  #x00000052 ) (bvshl bv_0 #x00000060 ))))
(assert (and (bvsle (bvor #x0000005f  bv_0) (bvsmod bv_1 #x0000004b )) (or (bvslt #x00000047  #x000000b4 ) (bvule bv_0 bv_2))))
(assert (bvuge (bvnor (bvnand bv_1 #x000000b7 ) (bvxnor bv_3 bv_3)) (bvand (bvsrem #x0000004d  bv_2) (bvsdiv bv_2 bv_0))))
(assert (=> (bvsgt (bvsmod #x00000004  bv_0) (bvadd bv_1 #x00000099 )) (bvuge (bvsdiv #x00000088  #x000000ce ) (bvor bv_2 bv_0))))
(check-sat)
(exit)
